Route #1: 26 53 59 14 35 7
Route #2: 11 38 10 58 12
Route #3: 17 40 9 31 39
Route #4: 32 25 55 18 50 44 3
Route #5: 49 24 56 23 63 33 6
Route #6: 51 16 1 62 28 2
Route #7: 43 41 42 64 22 61 21
Route #8: 57 15 37 20 60 36 47 5
Route #9: 46 8 19 54 13 52 34
Route #10: 30 48 29 45 27 4
Cost 833